NAME: ../File/prFile/tspFile/tsp_file42.tsp
COMMENT: TSP file generated by Python
TYPE: TSP
DIMENSION: 30
EDGE_WEIGHT_TYPE: EUC_2D
NODE_COORD_SECTION
1 90 19
2 28 41
3 93 84
4 77 67
5 22 58
6 30 79
7 61 57
8 24 80
9 22 2
10 1 89
11 63 91
12 44 54
13 51 3
14 14 27
15 51 93
16 71 78
17 74 31
18 9 88
19 14 73
20 66 8
21 66 55
22 85 33
23 88 23
24 8 36
25 2 53
26 76 46
27 39 87
28 31 70
29 96 33
30 31 14
EOF
